NAME : X-n344-k43
COMMENT : "Generated by Uchoa, Pecin, Pessoa, Poggi, Subramanian, and Vidal (2013)"
TYPE : CVRP
DIMENSION : 344
EDGE_WEIGHT_TYPE : EUC_2D
CAPACITY : 61
NODE_COORD_SECTION
1 500 500
2 615 190
3 890 200
4 983 684
5 874 112
6 906 186
7 801 278
8 823 446
9 242 544
10 505 210
11 767 766
12 698 305
13 707 511
14 10 968
15 172 13
16 57 414
17 317 373
18 849 680
19 854 12
20 429 688
21 822 378
22 774 584
23 601 895
24 921 309
25 176 165
26 368 432
27 656 430
28 715 225
29 35 264
30 544 994
31 214 533
32 573 650
33 259 595
34 38 550
35 925 755
36 337 562
37 412 969
38 919 402
39 391 792
40 424 206
41 259 588
42 79 364
43 667 978
44 332 593
45 270 544
46 745 267
47 760 786
48 134 998
49 117 320
50 966 458
51 133 334
52 986 462
53 176 290
54 120 296
55 201 878
56 615 293
57 24 217
58 418 662
59 831 314
60 832 564
61 945 758
62 394 446
63 843 680
64 24 613
65 422 956
66 411 58
67 512 655
68 657 544
69 644 748
70 162 924
71 64 57
72 773 727
73 1 461
74 167 981
75 180 346
76 495 295
77 589 311
78 273 186
79 493 121
80 522 653
81 704 909
82 157 9
83 90 625
84 632 964
85 347 750
86 825 940
87 9 237
88 181 662
89 722 724
90 106 978
91 746 981
92 603 944
93 734 612
94 163 142
95 743 16
96 910 272
97 495 584
98 985 968
99 901 149
100 192 878
101 817 700
102 888 1
103 70 323
104 119 255
105 716 413
106 17 309
107 558 122
108 436 663
109 912 64
110 846 973
111 622 271
112 469 629
113 326 388
114 675 587
115 974 135
116 620 443
117 585 6
118 134 764
119 276 222
120 869 663
121 517 935
122 681 631
123 650 679
124 277 612
125 654 76
126 101 332
127 162 792
128 480 878
129 730 728
130 8 525
131 340 489
132 194 815
133 183 75
134 345 884
135 660 841
136 712 42
137 655 695
138 880 600
139 50 555
140 406 946
141 490 53
142 712 878
143 396 484
144 225 176
145 235 9
146 768 438
147 33 116
148 197 149
149 141 312
150 301 18
151 251 83
152 930 549
153 662 99
154 394 872
155 793 659
156 104 821
157 953 401
158 459 264
159 353 254
160 986 680
161 375 639
162 733 982
163 82 923
164 912 604
165 992 123
166 784 823
167 82 859
168 803 338
169 67 555
170 5 102
171 907 896
172 654 393
173 573 527
174 122 150
175 65 9
176 41 545
177 680 22
178 685 814
179 520 817
180 575 872
181 232 836
182 150 82
183 734 779
184 555 13
185 774 848
186 101 440
187 44 141
188 573 609
189 552 463
190 436 773
191 497 547
192 513 861
193 767 794
194 461 804
195 95 192
196 236 121
197 678 796
198 711 637
199 687 7
200 507 855
201 105 82
202 550 658
203 595 507
204 604 726
205 745 746
206 608 519
207 551 750
208 439 943
209 562 496
210 379 464
211 618 848
212 565 519
213 514 548
214 512 435
215 55 556
216 486 762
217 42 31
218 561 797
219 581 510
220 586 888
221 418 791
222 112 157
223 136 189
224 589 92
225 41 501
226 383 686
227 419 687
228 466 837
229 144 85
230 445 538
231 637 46
232 219 38
233 27 564
234 710 875
235 58 518
236 92 293
237 842 895
238 731 737
239 606 332
240 606 704
241 789 879
242 609 368
243 508 818
244 72 46
245 137 70
246 113 113
247 41 399
248 112 82
249 678 743
250 214 619
251 471 405
252 92 163
253 804 753
254 914 234
255 172 328
256 129 161
257 64 580
258 667 727
259 496 806
260 121 150
261 698 50
262 613 106
263 583 675
264 466 675
265 313 775
266 30 555
267 137 266
268 668 604
269 705 747
270 722 981
271 649 808
272 163 244
273 565 370
274 499 841
275 46 194
276 513 530
277 638 832
278 752 797
279 132 16
280 570 3
281 702 820
282 462 689
283 426 818
284 500 887
285 489 725
286 198 26
287 9 875
288 29 588
289 640 6
290 624 762
291 180 262
292 843 98
293 661 64
294 142 149
295 748 925
296 555 765
297 669 393
298 54 527
299 2 57
300 694 679
301 641 883
302 98 518
303 123 564
304 920 860
305 77 506
306 656 17
307 377 640
308 819 879
309 76 94
310 117 360
311 10 614
312 474 845
313 702 63
314 741 232
315 460 792
316 689 901
317 5 718
318 610 765
319 677 851
320 698 725
321 574 13
322 87 650
323 666 687
324 5 190
325 103 530
326 582 474
327 26 148
328 539 901
329 15 159
330 32 1
331 158 173
332 571 516
333 650 658
334 161 140
335 499 834
336 570 682
337 139 525
338 577 356
339 175 121
340 698 54
341 561 547
342 553 546
343 671 10
344 509 650
PICKUP_AND_DELIVERY_SECTION
1 0 0 1000000000 0 0 0
2 0 0 1000000000 0 0 7
3 0 0 1000000000 0 10 0
4 0 0 1000000000 0 0 7
5 0 0 1000000000 0 8 0
6 0 0 1000000000 0 0 9
7 0 0 1000000000 0 8 0
8 0 0 1000000000 0 0 5
9 0 0 1000000000 0 7 0
10 0 0 1000000000 0 0 7
11 0 0 1000000000 0 5 0
12 0 0 1000000000 0 0 10
13 0 0 1000000000 0 8 0
14 0 0 1000000000 0 0 6
15 0 0 1000000000 0 7 0
16 0 0 1000000000 0 0 7
17 0 0 1000000000 0 5 0
18 0 0 1000000000 0 0 9
19 0 0 1000000000 0 10 0
20 0 0 1000000000 0 0 10
21 0 0 1000000000 0 7 0
22 0 0 1000000000 0 0 5
23 0 0 1000000000 0 9 0
24 0 0 1000000000 0 0 10
25 0 0 1000000000 0 10 0
26 0 0 1000000000 0 0 8
27 0 0 1000000000 0 5 0
28 0 0 1000000000 0 0 9
29 0 0 1000000000 0 7 0
30 0 0 1000000000 0 0 6
31 0 0 1000000000 0 8 0
32 0 0 1000000000 0 0 5
33 0 0 1000000000 0 8 0
34 0 0 1000000000 0 0 7
35 0 0 1000000000 0 6 0
36 0 0 1000000000 0 0 6
37 0 0 1000000000 0 10 0
38 0 0 1000000000 0 0 10
39 0 0 1000000000 0 9 0
40 0 0 1000000000 0 0 6
41 0 0 1000000000 0 8 0
42 0 0 1000000000 0 0 9
43 0 0 1000000000 0 9 0
44 0 0 1000000000 0 0 7
45 0 0 1000000000 0 10 0
46 0 0 1000000000 0 0 5
47 0 0 1000000000 0 10 0
48 0 0 1000000000 0 0 6
49 0 0 1000000000 0 5 0
50 0 0 1000000000 0 0 7
51 0 0 1000000000 0 9 0
52 0 0 1000000000 0 0 10
53 0 0 1000000000 0 7 0
54 0 0 1000000000 0 0 10
55 0 0 1000000000 0 5 0
56 0 0 1000000000 0 0 10
57 0 0 1000000000 0 8 0
58 0 0 1000000000 0 0 9
59 0 0 1000000000 0 5 0
60 0 0 1000000000 0 0 8
61 0 0 1000000000 0 10 0
62 0 0 1000000000 0 0 6
63 0 0 1000000000 0 8 0
64 0 0 1000000000 0 0 5
65 0 0 1000000000 0 7 0
66 0 0 1000000000 0 0 5
67 0 0 1000000000 0 5 0
68 0 0 1000000000 0 0 10
69 0 0 1000000000 0 5 0
70 0 0 1000000000 0 0 8
71 0 0 1000000000 0 7 0
72 0 0 1000000000 0 0 9
73 0 0 1000000000 0 5 0
74 0 0 1000000000 0 0 6
75 0 0 1000000000 0 10 0
76 0 0 1000000000 0 0 6
77 0 0 1000000000 0 7 0
78 0 0 1000000000 0 0 10
79 0 0 1000000000 0 10 0
80 0 0 1000000000 0 0 6
81 0 0 1000000000 0 6 0
82 0 0 1000000000 0 0 10
83 0 0 1000000000 0 9 0
84 0 0 1000000000 0 0 6
85 0 0 1000000000 0 10 0
86 0 0 1000000000 0 0 6
87 0 0 1000000000 0 9 0
88 0 0 1000000000 0 0 10
89 0 0 1000000000 0 8 0
90 0 0 1000000000 0 0 8
91 0 0 1000000000 0 9 0
92 0 0 1000000000 0 0 9
93 0 0 1000000000 0 9 0
94 0 0 1000000000 0 0 10
95 0 0 1000000000 0 7 0
96 0 0 1000000000 0 0 6
97 0 0 1000000000 0 9 0
98 0 0 1000000000 0 0 8
99 0 0 1000000000 0 7 0
100 0 0 1000000000 0 0 6
101 0 0 1000000000 0 8 0
102 0 0 1000000000 0 0 10
103 0 0 1000000000 0 7 0
104 0 0 1000000000 0 0 10
105 0 0 1000000000 0 9 0
106 0 0 1000000000 0 0 8
107 0 0 1000000000 0 10 0
108 0 0 1000000000 0 0 8
109 0 0 1000000000 0 6 0
110 0 0 1000000000 0 0 9
111 0 0 1000000000 0 10 0
112 0 0 1000000000 0 0 9
113 0 0 1000000000 0 6 0
114 0 0 1000000000 0 0 9
115 0 0 1000000000 0 8 0
116 0 0 1000000000 0 0 8
117 0 0 1000000000 0 6 0
118 0 0 1000000000 0 0 7
119 0 0 1000000000 0 8 0
120 0 0 1000000000 0 0 7
121 0 0 1000000000 0 8 0
122 0 0 1000000000 0 0 8
123 0 0 1000000000 0 5 0
124 0 0 1000000000 0 0 6
125 0 0 1000000000 0 10 0
126 0 0 1000000000 0 0 5
127 0 0 1000000000 0 7 0
128 0 0 1000000000 0 0 6
129 0 0 1000000000 0 7 0
130 0 0 1000000000 0 0 5
131 0 0 1000000000 0 7 0
132 0 0 1000000000 0 0 6
133 0 0 1000000000 0 7 0
134 0 0 1000000000 0 0 6
135 0 0 1000000000 0 10 0
136 0 0 1000000000 0 0 6
137 0 0 1000000000 0 6 0
138 0 0 1000000000 0 0 8
139 0 0 1000000000 0 7 0
140 0 0 1000000000 0 0 10
141 0 0 1000000000 0 9 0
142 0 0 1000000000 0 0 10
143 0 0 1000000000 0 6 0
144 0 0 1000000000 0 0 10
145 0 0 1000000000 0 5 0
146 0 0 1000000000 0 0 9
147 0 0 1000000000 0 8 0
148 0 0 1000000000 0 0 5
149 0 0 1000000000 0 9 0
150 0 0 1000000000 0 0 7
151 0 0 1000000000 0 9 0
152 0 0 1000000000 0 0 9
153 0 0 1000000000 0 7 0
154 0 0 1000000000 0 0 6
155 0 0 1000000000 0 5 0
156 0 0 1000000000 0 0 10
157 0 0 1000000000 0 5 0
158 0 0 1000000000 0 0 6
159 0 0 1000000000 0 5 0
160 0 0 1000000000 0 0 5
161 0 0 1000000000 0 6 0
162 0 0 1000000000 0 0 8
163 0 0 1000000000 0 10 0
164 0 0 1000000000 0 0 8
165 0 0 1000000000 0 5 0
166 0 0 1000000000 0 0 7
167 0 0 1000000000 0 10 0
168 0 0 1000000000 0 0 5
169 0 0 1000000000 0 8 0
170 0 0 1000000000 0 0 8
171 0 0 1000000000 0 9 0
172 0 0 1000000000 0 0 7
173 0 0 1000000000 0 6 0
174 0 0 1000000000 0 0 7
175 0 0 1000000000 0 9 0
176 0 0 1000000000 0 0 7
177 0 0 1000000000 0 7 0
178 0 0 1000000000 0 0 7
179 0 0 1000000000 0 9 0
180 0 0 1000000000 0 0 7
181 0 0 1000000000 0 8 0
182 0 0 1000000000 0 0 8
183 0 0 1000000000 0 10 0
184 0 0 1000000000 0 0 6
185 0 0 1000000000 0 9 0
186 0 0 1000000000 0 0 8
187 0 0 1000000000 0 10 0
188 0 0 1000000000 0 0 8
189 0 0 1000000000 0 6 0
190 0 0 1000000000 0 0 6
191 0 0 1000000000 0 5 0
192 0 0 1000000000 0 0 8
193 0 0 1000000000 0 5 0
194 0 0 1000000000 0 0 8
195 0 0 1000000000 0 5 0
196 0 0 1000000000 0 0 7
197 0 0 1000000000 0 9 0
198 0 0 1000000000 0 0 9
199 0 0 1000000000 0 7 0
200 0 0 1000000000 0 0 10
201 0 0 1000000000 0 6 0
202 0 0 1000000000 0 0 8
203 0 0 1000000000 0 9 0
204 0 0 1000000000 0 0 10
205 0 0 1000000000 0 10 0
206 0 0 1000000000 0 0 8
207 0 0 1000000000 0 9 0
208 0 0 1000000000 0 0 8
209 0 0 1000000000 0 5 0
210 0 0 1000000000 0 0 8
211 0 0 1000000000 0 10 0
212 0 0 1000000000 0 0 9
213 0 0 1000000000 0 6 0
214 0 0 1000000000 0 0 5
215 0 0 1000000000 0 8 0
216 0 0 1000000000 0 0 6
217 0 0 1000000000 0 8 0
218 0 0 1000000000 0 0 5
219 0 0 1000000000 0 7 0
220 0 0 1000000000 0 0 5
221 0 0 1000000000 0 9 0
222 0 0 1000000000 0 0 7
223 0 0 1000000000 0 10 0
224 0 0 1000000000 0 0 9
225 0 0 1000000000 0 7 0
226 0 0 1000000000 0 0 10
227 0 0 1000000000 0 10 0
228 0 0 1000000000 0 0 8
229 0 0 1000000000 0 9 0
230 0 0 1000000000 0 0 7
231 0 0 1000000000 0 7 0
232 0 0 1000000000 0 0 10
233 0 0 1000000000 0 6 0
234 0 0 1000000000 0 0 10
235 0 0 1000000000 0 7 0
236 0 0 1000000000 0 0 7
237 0 0 1000000000 0 6 0
238 0 0 1000000000 0 0 7
239 0 0 1000000000 0 9 0
240 0 0 1000000000 0 0 9
241 0 0 1000000000 0 9 0
242 0 0 1000000000 0 0 8
243 0 0 1000000000 0 6 0
244 0 0 1000000000 0 0 9
245 0 0 1000000000 0 9 0
246 0 0 1000000000 0 0 9
247 0 0 1000000000 0 7 0
248 0 0 1000000000 0 0 7
249 0 0 1000000000 0 7 0
250 0 0 1000000000 0 0 7
251 0 0 1000000000 0 9 0
252 0 0 1000000000 0 0 8
253 0 0 1000000000 0 10 0
254 0 0 1000000000 0 0 10
255 0 0 1000000000 0 5 0
256 0 0 1000000000 0 0 6
257 0 0 1000000000 0 6 0
258 0 0 1000000000 0 0 10
259 0 0 1000000000 0 7 0
260 0 0 1000000000 0 0 5
261 0 0 1000000000 0 7 0
262 0 0 1000000000 0 0 8
263 0 0 1000000000 0 6 0
264 0 0 1000000000 0 0 9
265 0 0 1000000000 0 6 0
266 0 0 1000000000 0 0 8
267 0 0 1000000000 0 5 0
268 0 0 1000000000 0 0 9
269 0 0 1000000000 0 6 0
270 0 0 1000000000 0 0 5
271 0 0 1000000000 0 6 0
272 0 0 1000000000 0 0 7
273 0 0 1000000000 0 6 0
274 0 0 1000000000 0 0 7
275 0 0 1000000000 0 9 0
276 0 0 1000000000 0 0 7
277 0 0 1000000000 0 7 0
278 0 0 1000000000 0 0 5
279 0 0 1000000000 0 9 0
280 0 0 1000000000 0 0 5
281 0 0 1000000000 0 6 0
282 0 0 1000000000 0 0 5
283 0 0 1000000000 0 10 0
284 0 0 1000000000 0 0 10
285 0 0 1000000000 0 5 0
286 0 0 1000000000 0 0 10
287 0 0 1000000000 0 5 0
288 0 0 1000000000 0 0 7
289 0 0 1000000000 0 7 0
290 0 0 1000000000 0 0 8
291 0 0 1000000000 0 8 0
292 0 0 1000000000 0 0 8
293 0 0 1000000000 0 9 0
294 0 0 1000000000 0 0 7
295 0 0 1000000000 0 7 0
296 0 0 1000000000 0 0 9
297 0 0 1000000000 0 5 0
298 0 0 1000000000 0 0 10
299 0 0 1000000000 0 8 0
300 0 0 1000000000 0 0 8
301 0 0 1000000000 0 6 0
302 0 0 1000000000 0 0 10
303 0 0 1000000000 0 5 0
304 0 0 1000000000 0 0 10
305 0 0 1000000000 0 7 0
306 0 0 1000000000 0 0 7
307 0 0 1000000000 0 8 0
308 0 0 1000000000 0 0 9
309 0 0 1000000000 0 9 0
310 0 0 1000000000 0 0 5
311 0 0 1000000000 0 7 0
312 0 0 1000000000 0 0 8
313 0 0 1000000000 0 9 0
314 0 0 1000000000 0 0 5
315 0 0 1000000000 0 10 0
316 0 0 1000000000 0 0 9
317 0 0 1000000000 0 7 0
318 0 0 1000000000 0 0 8
319 0 0 1000000000 0 7 0
320 0 0 1000000000 0 0 9
321 0 0 1000000000 0 8 0
322 0 0 1000000000 0 0 7
323 0 0 1000000000 0 7 0
324 0 0 1000000000 0 0 5
325 0 0 1000000000 0 7 0
326 0 0 1000000000 0 0 5
327 0 0 1000000000 0 7 0
328 0 0 1000000000 0 0 6
329 0 0 1000000000 0 7 0
330 0 0 1000000000 0 0 9
331 0 0 1000000000 0 10 0
332 0 0 1000000000 0 0 6
333 0 0 1000000000 0 8 0
334 0 0 1000000000 0 0 10
335 0 0 1000000000 0 7 0
336 0 0 1000000000 0 0 9
337 0 0 1000000000 0 10 0
338 0 0 1000000000 0 0 8
339 0 0 1000000000 0 8 0
340 0 0 1000000000 0 0 8
341 0 0 1000000000 0 9 0
342 0 0 1000000000 0 0 5
343 0 0 1000000000 0 8 0
344 0 0 1000000000 0 0 6
